NAME : explosion
TYPE : TSP
DIMENSION : 50
EDGE_WEIGHT_TYPE : EUC_2D
NODE_COORD_SECTION
1 425776 902967
2 437691 346214
3 340698 979168
4 591438 940620
5 596955 96562
6 476845 41636
7 464280 913509
8 689579 825959
9 120192 548759
10 58472 769078
11 868931 217813
12 502315 853417
13 458240 56255
14 280759 633037
15 576184 15389
16 602496 228359
17 551936 203028
18 683323 6073
19 481735 59842
20 93777 824640
21 429344 966313
22 734885 36401
23 571900 99222
24 855290 775324
25 791484 73347
26 413445 50112
27 420363 650756
28 652159 826376
29 19993 903401
30 678482 918160
31 773542 71892
32 374720 894890
33 731029 886871
34 413709 586123
35 304867 121848
36 465296 632138
37 139749 963295
38 775804 202376
39 466409 223375
40 245348 777432
41 666656 90328
42 670509 816748
43 79092 618202
44 703241 800562
45 429850 417729
46 436544 548997
47 538345 773998
48 937908 116987
49 536774 39058
50 613764 849574
EOF
